p cnf 243 107
7 0
-8 -12 0
8 12 0
-2 12 -13 0
2 -12 -13 0
-2 -12 13 0
2 12 13 0
-13 0
-1 -12 -14 0
1 12 -14 0
-1 12 14 0
1 -12 14 0
-14 0
-12 -16 0
12 16 0
-1 17 0
-16 17 0
1 16 -17 0
-18 -19 0
18 19 0
-4 19 -20 0
4 -19 -20 0
-4 -19 20 0
4 19 20 0
-20 0
-3 -19 -21 0
3 19 -21 0
-3 19 21 0
3 -19 21 0
-21 0
-19 -23 0
19 23 0
-3 24 0
-23 24 0
3 23 -24 0
-2 4 25 0
2 4 -25 0
2 -4 25 0
-2 -4 -25 0
4 -26 0
-2 -26 0
2 -4 26 0
4 -27 0
2 -27 0
-2 -4 27 0
-28 -29 0
28 29 0
-6 29 -30 0
6 -29 -30 0
-6 -29 30 0
6 29 30 0
-30 0
-5 -29 -31 0
5 29 -31 0
-5 29 31 0
5 -29 31 0
-31 0
-29 -33 0
29 33 0
-5 34 0
-33 34 0
5 33 -34 0
26 -35 0
25 -35 0
-25 -26 35 0
-25 -26 -36 0
25 26 -36 0
25 -26 36 0
-25 26 36 0
-27 37 0
-35 37 0
27 35 -37 0
-27 -35 -38 0
27 35 -38 0
-27 35 38 0
27 -35 38 0
6 -25 39 0
6 25 -39 0
-6 25 39 0
-6 -25 -39 0
6 -26 40 0
6 26 -40 0
-6 -36 40 0
-6 36 -40 0
6 -27 41 0
6 27 -41 0
-6 38 41 0
-6 -38 -41 0
6 -42 0
37 -42 0
-6 -37 42 0
17 0
24 0
34 0
-237 -239 -241 0
237 239 -241 0
-237 239 241 0
237 -239 241 0
-238 -240 -242 0
238 240 -242 0
-238 240 242 0
238 -240 242 0
-241 -243 0
-242 -243 0
241 242 243 0
-7 243 0
7 -243 0
c FALSE __CPROVER_malloc_is_new_array#1
c 212 main::1::I!0@1#1
c FALSE main::1::I!0@1#2
c 2 main::1::I!0@1#3
c 15 main::$tmp::tmp_if_expr$2!0@1#1
c 1 goto_symex::\guard#1
c TRUE main::$tmp::tmp_if_expr$2!0@1#2
c 15 main::$tmp::tmp_if_expr$2!0@1#3
c 16 main::$tmp::tmp_if_expr$2!0@1#4
c 17 main::$tmp::tmp_if_expr$2!0@1#5
c 4 main::1::I!0@1#4
c 22 main::$tmp::tmp_if_expr$2!0@1#7
c 3 goto_symex::\guard#2
c TRUE main::$tmp::tmp_if_expr$2!0@1#8
c 22 main::$tmp::tmp_if_expr$2!0@1#9
c 23 main::$tmp::tmp_if_expr$2!0@1#10
c 24 main::$tmp::tmp_if_expr$2!0@1#11
c 6 main::1::I!0@1#5
c 32 main::$tmp::tmp_if_expr$2!0@1#13
c 5 goto_symex::\guard#3
c TRUE main::$tmp::tmp_if_expr$2!0@1#14
c 32 main::$tmp::tmp_if_expr$2!0@1#15
c 33 main::$tmp::tmp_if_expr$2!0@1#16
c 34 main::$tmp::tmp_if_expr$2!0@1#17
c 51 main::$tmp::tmp_if_expr$2!0@1#18
c 51 main::$tmp::tmp_if_expr$2!0@1#20
c main::1::global_consumption!0@1#5 -2 -2 2 FALSE FALSE FALSE FALSE FALSE FALSE FALSE FALSE FALSE FALSE FALSE FALSE FALSE FALSE FALSE FALSE FALSE FALSE FALSE FALSE FALSE FALSE FALSE FALSE FALSE FALSE FALSE FALSE FALSE
c main::1::global_consumption!0@1#6 25 26 27 FALSE FALSE FALSE FALSE FALSE FALSE FALSE FALSE FALSE FALSE FALSE FALSE FALSE FALSE FALSE FALSE FALSE FALSE FALSE FALSE FALSE FALSE FALSE FALSE FALSE FALSE FALSE FALSE FALSE
c main::1::i!0@1#4 FALSE TRUE FALSE FALSE FALSE FALSE FALSE FALSE FALSE FALSE FALSE FALSE FALSE FALSE FALSE FALSE FALSE FALSE FALSE FALSE FALSE FALSE FALSE FALSE FALSE FALSE FALSE FALSE FALSE FALSE FALSE FALSE
c main::1::global_consumption!0@1#1 52 53 54 55 56 57 58 59 60 61 62 63 64 65 66 67 68 69 70 71 72 73 74 75 76 77 78 79 80 81 82 83
c main::1::global_consumption!0@1#2 FALSE FALSE FALSE FALSE FALSE FALSE FALSE FALSE FALSE FALSE FALSE FALSE FALSE FALSE FALSE FALSE FALSE FALSE FALSE FALSE FALSE FALSE FALSE FALSE FALSE FALSE FALSE FALSE FALSE FALSE FALSE FALSE
c main::1::i!0@1#1 84 85 86 87 88 89 90 91 92 93 94 95 96 97 98 99 100 101 102 103 104 105 106 107 108 109 110 111 112 113 114 115
c main::1::i!0@1#2 FALSE FALSE FALSE FALSE FALSE FALSE FALSE FALSE FALSE FALSE FALSE FALSE FALSE FALSE FALSE FALSE FALSE FALSE FALSE FALSE FALSE FALSE FALSE FALSE FALSE FALSE FALSE FALSE FALSE FALSE FALSE FALSE
c main::1::S!0@1#1 116 117 118 119 120 121 122 123 124 125 126 127 128 129 130 131 132 133 134 135 136 137 138 139 140 141 142 143 144 145 146 147
c main::1::S!0@1#2 TRUE FALSE FALSE FALSE FALSE FALSE FALSE FALSE FALSE FALSE FALSE FALSE FALSE FALSE FALSE FALSE FALSE FALSE FALSE FALSE FALSE FALSE FALSE FALSE FALSE FALSE FALSE FALSE FALSE FALSE FALSE FALSE
c main::1::M!0@1#1 148 149 150 151 152 153 154 155 156 157 158 159 160 161 162 163 164 165 166 167 168 169 170 171 172 173 174 175 176 177 178 179
c main::1::M!0@1#2 TRUE FALSE FALSE FALSE FALSE FALSE FALSE FALSE FALSE FALSE FALSE FALSE FALSE FALSE FALSE FALSE FALSE FALSE FALSE FALSE FALSE FALSE FALSE FALSE FALSE FALSE FALSE FALSE FALSE FALSE FALSE FALSE
c main::1::L!0@1#1 180 181 182 183 184 185 186 187 188 189 190 191 192 193 194 195 196 197 198 199 200 201 202 203 204 205 206 207 208 209 210 211
c main::1::global_consumption!0@1#7 -25 36 -38 37 FALSE FALSE FALSE FALSE FALSE FALSE FALSE FALSE FALSE FALSE FALSE FALSE FALSE FALSE FALSE FALSE FALSE FALSE FALSE FALSE FALSE FALSE FALSE FALSE FALSE FALSE FALSE FALSE
c main::1::global_consumption!0@1#8 39 40 41 42 FALSE FALSE FALSE FALSE FALSE FALSE FALSE FALSE FALSE FALSE FALSE FALSE FALSE FALSE FALSE FALSE FALSE FALSE FALSE FALSE FALSE FALSE FALSE FALSE FALSE FALSE FALSE FALSE
c main::1::i!0@1#5 TRUE TRUE FALSE FALSE FALSE FALSE FALSE FALSE FALSE FALSE FALSE FALSE FALSE FALSE FALSE FALSE FALSE FALSE FALSE FALSE FALSE FALSE FALSE FALSE FALSE FALSE FALSE FALSE FALSE FALSE FALSE FALSE
c main::1::L!0@1#2 TRUE FALSE FALSE FALSE FALSE FALSE FALSE FALSE FALSE FALSE FALSE FALSE FALSE FALSE FALSE FALSE FALSE FALSE FALSE FALSE FALSE FALSE FALSE FALSE FALSE FALSE FALSE FALSE FALSE FALSE FALSE FALSE
c __CPROVER_malloc_size#1 FALSE FALSE FALSE FALSE FALSE FALSE FALSE FALSE FALSE FALSE FALSE FALSE FALSE FALSE FALSE FALSE FALSE FALSE FALSE FALSE FALSE FALSE FALSE FALSE FALSE FALSE FALSE FALSE FALSE FALSE FALSE FALSE FALSE FALSE FALSE FALSE FALSE FALSE FALSE FALSE FALSE FALSE FALSE FALSE FALSE FALSE FALSE FALSE FALSE FALSE FALSE FALSE FALSE FALSE FALSE FALSE FALSE FALSE FALSE FALSE FALSE FALSE FALSE FALSE
c __CPROVER_next_thread_id#1 FALSE FALSE FALSE FALSE FALSE FALSE FALSE FALSE FALSE FALSE FALSE FALSE FALSE FALSE FALSE FALSE FALSE FALSE FALSE FALSE FALSE FALSE FALSE FALSE FALSE FALSE FALSE FALSE FALSE FALSE FALSE FALSE FALSE FALSE FALSE FALSE FALSE FALSE FALSE FALSE FALSE FALSE FALSE FALSE FALSE FALSE FALSE FALSE FALSE FALSE FALSE FALSE FALSE FALSE FALSE FALSE FALSE FALSE FALSE FALSE FALSE FALSE FALSE FALSE
c __CPROVER_pipe_count#1 FALSE FALSE FALSE FALSE FALSE FALSE FALSE FALSE FALSE FALSE FALSE FALSE FALSE FALSE FALSE FALSE FALSE FALSE FALSE FALSE FALSE FALSE FALSE FALSE FALSE FALSE FALSE FALSE FALSE FALSE FALSE FALSE
c __CPROVER_rounding_mode!0#1 FALSE FALSE FALSE FALSE FALSE FALSE FALSE FALSE FALSE FALSE FALSE FALSE FALSE FALSE FALSE FALSE FALSE FALSE FALSE FALSE FALSE FALSE FALSE FALSE FALSE FALSE FALSE FALSE FALSE FALSE FALSE FALSE
c __CPROVER_thread_id!0#1 FALSE FALSE FALSE FALSE FALSE FALSE FALSE FALSE FALSE FALSE FALSE FALSE FALSE FALSE FALSE FALSE FALSE FALSE FALSE FALSE FALSE FALSE FALSE FALSE FALSE FALSE FALSE FALSE FALSE FALSE FALSE FALSE FALSE FALSE FALSE FALSE FALSE FALSE FALSE FALSE FALSE FALSE FALSE FALSE FALSE FALSE FALSE FALSE FALSE FALSE FALSE FALSE FALSE FALSE FALSE FALSE FALSE FALSE FALSE FALSE FALSE FALSE FALSE FALSE
c large_consumption#1 TRUE FALSE TRUE FALSE FALSE FALSE FALSE FALSE FALSE FALSE FALSE FALSE FALSE FALSE FALSE FALSE FALSE FALSE FALSE FALSE FALSE FALSE FALSE FALSE FALSE FALSE FALSE FALSE FALSE FALSE FALSE FALSE
c medium_consumption#1 TRUE TRUE FALSE FALSE FALSE FALSE FALSE FALSE FALSE FALSE FALSE FALSE FALSE FALSE FALSE FALSE FALSE FALSE FALSE FALSE FALSE FALSE FALSE FALSE FALSE FALSE FALSE FALSE FALSE FALSE FALSE FALSE
c main::1::global_consumption!0@1#3 TRUE FALSE FALSE FALSE FALSE FALSE FALSE FALSE FALSE FALSE FALSE FALSE FALSE FALSE FALSE FALSE FALSE FALSE FALSE FALSE FALSE FALSE FALSE FALSE FALSE FALSE FALSE FALSE FALSE FALSE FALSE FALSE
c main::1::global_consumption!0@1#4 2 FALSE FALSE FALSE FALSE FALSE FALSE FALSE FALSE FALSE FALSE FALSE FALSE FALSE FALSE FALSE FALSE FALSE FALSE FALSE FALSE FALSE FALSE FALSE FALSE FALSE FALSE FALSE FALSE FALSE FALSE FALSE
c small_consumption#1 TRUE FALSE FALSE FALSE FALSE FALSE FALSE FALSE FALSE FALSE FALSE FALSE FALSE FALSE FALSE FALSE FALSE FALSE FALSE FALSE FALSE FALSE FALSE FALSE FALSE FALSE FALSE FALSE FALSE FALSE FALSE FALSE
c main::1::i!0@1#3 TRUE FALSE FALSE FALSE FALSE FALSE FALSE FALSE FALSE FALSE FALSE FALSE FALSE FALSE FALSE FALSE FALSE FALSE FALSE FALSE FALSE FALSE FALSE FALSE FALSE FALSE FALSE FALSE FALSE FALSE FALSE FALSE
